Minimize
 obj: - 15 x_0_0 - 15 x_1_0 - 16 x_2_0 - 17 x_3_0 - 17 x_4_0 

Subject To 
 knapsack_0: + 2 x_0_0 + 6 x_1_0 + 5 x_2_0 + 5 x_3_0 + 4 x_4_0  <= 8.0

Bounds

Binary
 x_0_0 x_1_0 x_2_0 x_3_0 x_4_0
General

End